TYPE : Vertex Cover
DIMENSION: 26
EDGE_DATA_SECTION:
0 5
0 9
0 10
0 17
0 18
0 19
0 22
1 8
1 10
1 11
1 14
1 17
1 19
1 21
1 22
1 23
2 3
2 4
2 7
2 10
2 15
2 19
2 21
2 24
3 4
3 5
3 7
3 10
3 11
3 12
3 18
3 20
3 22
3 23
3 24
4 7
4 10
4 20
4 21
5 6
5 12
5 20
5 22
5 23
6 7
6 12
6 24
7 9
7 10
7 18
7 20
7 22
7 25
8 9
8 11
8 13
8 15
8 16
8 23
9 17
9 19
10 13
10 14
10 16
10 18
10 19
10 25
11 13
11 15
11 16
11 20
11 23
12 14
12 15
12 16
12 17
12 24
12 25
13 14
13 19
13 21
13 22
13 23
13 24
13 25
14 15
14 18
14 21
14 24
14 25
15 24
15 25
16 24
17 19
18 20
19 21
19 22
20 24
20 25
21 24
22 23
-1
VERTEX_DEGREE:
7.0 9.0 8.0 12.0 6.0 7.0 4.0 10.0 7.0 5.0 12.0 8.0 9.0 10.0 9.0 7.0 5.0 5.0 6.0 9.0 8.0 7.0 8.0 7.0 10.0 7.0
VERTEX_COVER:
0 2 3 6 7 8 10 11 12 14 17 19 20 21 22 23 24 25
EOF
